NAME : traveling-santa-2018-prime-paths.27413.tour
COMMENT : Length = 27413
COMMENT : Found by LKH [Keld Helsgaun] Sun Jun 12 19:59:43 2022
TYPE : TOUR
DIMENSION : 100
TOUR_SECTION
1
14
94
69
48
43
45
49
19
23
58
92
60
88
82
36
72
11
6
64
20
47
59
29
12
38
100
30
80
84
22
76
13
8
55
98
90
73
96
68
66
62
65
56
87
86
44
75
40
33
17
3
54
10
85
79
51
78
34
31
27
71
2
89
97
25
37
42
99
4
46
32
18
63
39
50
70
53
35
74
52
9
67
61
7
83
91
93
21
41
95
57
15
28
77
24
5
16
26
81
-1
EOF
